c Result of efficient AIG-to-CNF conversion using package CNF
p cnf 197 626
-2 3 120 122 124 0
-2 3 -120 -122 124 0
2 -124 0
2 120 -122 0
2 -3 0
2 -120 122 0
3 -4 92 0
3 4 -92 0
-3 4 92 0
-3 -4 -92 0
4 -5 89 0
4 5 -89 0
-4 5 89 0
-4 -5 -89 0
5 -134 -6 0
5 -6 -34 0
5 -134 -34 0
-5 134 34 0
-5 6 34 0
-5 134 6 0
6 -166 7 0
6 166 -7 0
-6 166 7 0
-6 -166 -7 0
-7 167 8 0
7 -167 0
7 -8 0
-8 168 9 0
8 -168 0
8 -9 0
-9 169 10 0
9 -169 0
9 -10 0
-10 170 11 0
10 -170 0
10 -11 0
-11 171 12 0
11 -171 0
11 -12 0
-12 172 13 0
12 -172 0
12 -13 0
-13 173 14 0
13 -173 0
13 -14 0
-14 174 15 0
14 -174 0
14 -15 0
-15 175 16 0
15 -175 0
15 -16 0
-16 176 17 0
16 -176 0
16 -17 0
-17 177 18 0
17 -177 0
17 -18 0
-18 178 19 0
18 -178 0
18 -19 0
-19 179 20 0
19 -179 0
19 -20 0
-20 180 21 0
20 -180 0
20 -21 0
-21 181 22 0
21 -181 0
21 -22 0
-22 182 23 0
22 -182 0
22 -23 0
-23 183 24 0
23 -183 0
23 -24 0
-24 184 25 0
24 -184 0
24 -25 0
-25 185 26 0
25 -185 0
25 -26 0
-26 186 27 0
26 -186 0
26 -27 0
-27 187 28 0
27 -187 0
27 -28 0
-28 188 29 0
28 -188 0
28 -29 0
-29 189 30 0
29 -189 0
29 -30 0
-30 190 31 0
30 -190 0
30 -31 0
-31 191 32 0
31 -191 0
31 -32 0
-32 192 33 0
32 -192 0
32 -33 0
-33 193 194 195 196 0
33 -196 0
33 -195 0
33 -193 0
33 -194 0
34 -135 -35 0
34 -35 -36 0
34 -135 -36 0
-34 135 36 0
-34 35 36 0
-34 135 35 0
35 -167 8 0
35 167 -8 0
-35 167 8 0
-35 -167 -8 0
36 -136 -37 0
36 -37 -38 0
36 -136 -38 0
-36 136 38 0
-36 37 38 0
-36 136 37 0
37 -168 9 0
37 168 -9 0
-37 168 9 0
-37 -168 -9 0
38 -137 -39 0
38 -39 -40 0
38 -137 -40 0
-38 137 40 0
-38 39 40 0
-38 137 39 0
39 -169 10 0
39 169 -10 0
-39 169 10 0
-39 -169 -10 0
40 -138 -41 0
40 -41 -42 0
40 -138 -42 0
-40 138 42 0
-40 41 42 0
-40 138 41 0
41 -170 11 0
41 170 -11 0
-41 170 11 0
-41 -170 -11 0
42 -139 -43 0
42 -43 -44 0
42 -139 -44 0
-42 139 44 0
-42 43 44 0
-42 139 43 0
43 -171 12 0
43 171 -12 0
-43 171 12 0
-43 -171 -12 0
44 -140 -45 0
44 -45 -46 0
44 -140 -46 0
-44 140 46 0
-44 45 46 0
-44 140 45 0
45 -172 13 0
45 172 -13 0
-45 172 13 0
-45 -172 -13 0
46 -141 -47 0
46 -47 -48 0
46 -141 -48 0
-46 141 48 0
-46 47 48 0
-46 141 47 0
47 -173 14 0
47 173 -14 0
-47 173 14 0
-47 -173 -14 0
48 -142 -49 0
48 -49 -50 0
48 -142 -50 0
-48 142 50 0
-48 49 50 0
-48 142 49 0
49 -174 15 0
49 174 -15 0
-49 174 15 0
-49 -174 -15 0
50 -143 -51 0
50 -51 -52 0
50 -143 -52 0
-50 143 52 0
-50 51 52 0
-50 143 51 0
51 -175 16 0
51 175 -16 0
-51 175 16 0
-51 -175 -16 0
52 -144 -53 0
52 -53 -54 0
52 -144 -54 0
-52 144 54 0
-52 53 54 0
-52 144 53 0
53 -176 17 0
53 176 -17 0
-53 176 17 0
-53 -176 -17 0
54 -145 -55 0
54 -55 -56 0
54 -145 -56 0
-54 145 56 0
-54 55 56 0
-54 145 55 0
55 -177 18 0
55 177 -18 0
-55 177 18 0
-55 -177 -18 0
56 -146 -57 0
56 -57 -58 0
56 -146 -58 0
-56 146 58 0
-56 57 58 0
-56 146 57 0
57 -178 19 0
57 178 -19 0
-57 178 19 0
-57 -178 -19 0
58 -147 -59 0
58 -59 -60 0
58 -147 -60 0
-58 147 60 0
-58 59 60 0
-58 147 59 0
59 -179 20 0
59 179 -20 0
-59 179 20 0
-59 -179 -20 0
60 -148 -61 0
60 -61 -62 0
60 -148 -62 0
-60 148 62 0
-60 61 62 0
-60 148 61 0
61 -180 21 0
61 180 -21 0
-61 180 21 0
-61 -180 -21 0
62 -149 -63 0
62 -63 -64 0
62 -149 -64 0
-62 149 64 0
-62 63 64 0
-62 149 63 0
63 -181 22 0
63 181 -22 0
-63 181 22 0
-63 -181 -22 0
64 -150 -65 0
64 -65 -66 0
64 -150 -66 0
-64 150 66 0
-64 65 66 0
-64 150 65 0
65 -182 23 0
65 182 -23 0
-65 182 23 0
-65 -182 -23 0
66 -151 -67 0
66 -67 -68 0
66 -151 -68 0
-66 151 68 0
-66 67 68 0
-66 151 67 0
67 -183 24 0
67 183 -24 0
-67 183 24 0
-67 -183 -24 0
68 -152 -69 0
68 -69 -70 0
68 -152 -70 0
-68 152 70 0
-68 69 70 0
-68 152 69 0
69 -184 25 0
69 184 -25 0
-69 184 25 0
-69 -184 -25 0
70 -153 -71 0
70 -71 -72 0
70 -153 -72 0
-70 153 72 0
-70 71 72 0
-70 153 71 0
71 -185 26 0
71 185 -26 0
-71 185 26 0
-71 -185 -26 0
72 -154 -73 0
72 -73 -74 0
72 -154 -74 0
-72 154 74 0
-72 73 74 0
-72 154 73 0
73 -186 27 0
73 186 -27 0
-73 186 27 0
-73 -186 -27 0
74 -155 -75 0
74 -75 -76 0
74 -155 -76 0
-74 155 76 0
-74 75 76 0
-74 155 75 0
75 -187 28 0
75 187 -28 0
-75 187 28 0
-75 -187 -28 0
76 -156 -77 0
76 -77 -78 0
76 -156 -78 0
-76 156 78 0
-76 77 78 0
-76 156 77 0
77 -188 29 0
77 188 -29 0
-77 188 29 0
-77 -188 -29 0
78 -157 -79 0
78 -79 -80 0
78 -157 -80 0
-78 157 80 0
-78 79 80 0
-78 157 79 0
79 -189 30 0
79 189 -30 0
-79 189 30 0
-79 -189 -30 0
80 -158 -81 0
80 -81 -82 0
80 -158 -82 0
-80 158 82 0
-80 81 82 0
-80 158 81 0
81 -190 31 0
81 190 -31 0
-81 190 31 0
-81 -190 -31 0
82 -159 -83 0
82 -83 -84 0
82 -159 -84 0
-82 159 84 0
-82 83 84 0
-82 159 83 0
83 -191 32 0
83 191 -32 0
-83 191 32 0
-83 -191 -32 0
84 192 -33 85 0
84 -160 -192 33 0
84 -160 -192 85 0
84 -160 192 -33 0
-84 192 33 0
-84 -192 -33 -85 0
-84 160 -192 0
-84 160 -85 0
-85 193 87 0
-85 -161 86 0
-85 -161 87 0
-85 -161 193 0
-85 193 86 0
85 161 -193 0
85 161 -86 -87 0
85 -193 -86 -87 0
-86 194 195 196 0
86 -194 0
86 -196 0
86 -195 0
87 162 -194 0
87 -194 -88 0
87 162 -88 0
-87 194 88 0
-87 -162 194 0
-87 -162 88 0
88 163 -195 0
88 164 -195 -196 0
88 163 164 -196 0
-88 -163 -164 0
-88 -164 195 0
-88 -163 195 0
-88 195 196 0
-88 -163 196 0
-89 -90 -91 0
-89 90 91 0
89 90 -91 0
89 -90 91 0
-90 166 7 0
90 -166 0
90 -7 0
91 133 -165 0
91 -133 165 0
-91 -133 -165 0
-91 133 165 0
-92 -91 -93 0
-92 91 93 0
92 91 -93 0
92 -91 93 0
93 134 -166 0
93 -166 -94 0
93 134 -94 0
-93 166 94 0
-93 -134 166 0
-93 -134 94 0
94 135 -167 0
94 -167 -95 0
94 135 -95 0
-94 167 95 0
-94 -135 167 0
-94 -135 95 0
95 136 -168 0
95 -168 -96 0
95 136 -96 0
-95 168 96 0
-95 -136 168 0
-95 -136 96 0
96 137 -169 0
96 -169 -97 0
96 137 -97 0
-96 169 97 0
-96 -137 169 0
-96 -137 97 0
97 138 -170 0
97 -170 -98 0
97 138 -98 0
-97 170 98 0
-97 -138 170 0
-97 -138 98 0
98 139 -171 0
98 -171 -99 0
98 139 -99 0
-98 171 99 0
-98 -139 171 0
-98 -139 99 0
99 140 -172 0
99 -172 -100 0
99 140 -100 0
-99 172 100 0
-99 -140 172 0
-99 -140 100 0
100 141 -173 0
100 -173 -101 0
100 141 -101 0
-100 173 101 0
-100 -141 173 0
-100 -141 101 0
101 142 -174 0
101 -174 -102 0
101 142 -102 0
-101 174 102 0
-101 -142 174 0
-101 -142 102 0
102 143 -175 0
102 -175 -103 0
102 143 -103 0
-102 175 103 0
-102 -143 175 0
-102 -143 103 0
103 144 -176 0
103 -176 -104 0
103 144 -104 0
-103 176 104 0
-103 -144 176 0
-103 -144 104 0
104 145 -177 0
104 -177 -105 0
104 145 -105 0
-104 177 105 0
-104 -145 177 0
-104 -145 105 0
105 146 -178 0
105 -178 -106 0
105 146 -106 0
-105 178 106 0
-105 -146 178 0
-105 -146 106 0
106 147 -179 0
106 -179 -107 0
106 147 -107 0
-106 179 107 0
-106 -147 179 0
-106 -147 107 0
107 148 -180 0
107 -180 -108 0
107 148 -108 0
-107 180 108 0
-107 -148 180 0
-107 -148 108 0
108 149 -181 0
108 -181 -109 0
108 149 -109 0
-108 181 109 0
-108 -149 181 0
-108 -149 109 0
109 150 -182 0
109 -182 -110 0
109 150 -110 0
-109 182 110 0
-109 -150 182 0
-109 -150 110 0
110 151 -183 0
110 -183 -111 0
110 151 -111 0
-110 183 111 0
-110 -151 183 0
-110 -151 111 0
111 152 -184 0
111 -184 -112 0
111 152 -112 0
-111 184 112 0
-111 -152 184 0
-111 -152 112 0
112 153 -185 0
112 -185 -113 0
112 153 -113 0
-112 185 113 0
-112 -153 185 0
-112 -153 113 0
113 154 -186 0
113 -186 -114 0
113 154 -114 0
-113 186 114 0
-113 -154 186 0
-113 -154 114 0
114 155 -187 0
114 -187 -115 0
114 155 -115 0
-114 187 115 0
-114 -155 187 0
-114 -155 115 0
115 156 -188 0
115 -188 -116 0
115 156 -116 0
-115 188 116 0
-115 -156 188 0
-115 -156 116 0
116 157 -189 0
116 -189 -117 0
116 157 -117 0
-116 189 117 0
-116 -157 189 0
-116 -157 117 0
117 158 -190 0
117 -190 -118 0
117 158 -118 0
-117 190 118 0
-117 -158 190 0
-117 -158 118 0
118 159 -191 0
118 -191 -119 0
118 159 -119 0
-118 191 119 0
-118 -159 191 0
-118 -159 119 0
119 -192 -85 0
119 160 -85 0
119 160 -192 0
-119 -160 85 0
-119 -160 192 0
-119 192 85 0
-120 -34 -121 0
-120 34 121 0
120 34 -121 0
120 -34 121 0
121 134 -6 0
121 -134 6 0
-121 -134 -6 0
-121 134 6 0
122 -94 123 0
122 94 -123 0
-122 94 123 0
-122 -94 -123 0
-123 -134 -166 0
-123 134 166 0
123 134 -166 0
123 -134 166 0
-124 125 127 129 131 0
-124 -125 -127 -129 -131 0
-124 125 127 -129 -131 0
-124 -125 -127 129 131 0
124 125 -127 0
124 -125 127 0
124 -129 131 0
124 129 -131 0
-125 -36 -126 0
-125 36 126 0
125 36 -126 0
125 -36 126 0
126 135 -35 0
126 -135 35 0
-126 -135 -35 0
-126 135 35 0
127 -95 128 0
127 95 -128 0
-127 95 128 0
-127 -95 -128 0
-128 -135 -167 0
-128 135 167 0
128 135 -167 0
128 -135 167 0
-129 -38 -130 0
-129 38 130 0
129 38 -130 0
129 -38 130 0
130 136 -37 0
130 -136 37 0
-130 -136 -37 0
-130 136 37 0
131 -96 132 0
131 96 -132 0
-131 96 132 0
-131 -96 -132 0
-132 -136 -168 0
-132 136 168 0
132 136 -168 0
132 -136 168 0
-197 0
2 0

